50
13333

243 923
53 481
476 984
846 950
152 20
825 230
652 544
988 493
313 683
783 246
673 231
271 177
59 649
521 957
394 470
933 27
544 72
533 557
418 833
318 24
643 561
441 324
349 89
169 892
848 597
33 409
493 721
114 711
568 303
85 684
13 768
313 873
360 167
595 256
459 325
925 790
818 737
264 175
996 818
946 938
837 609
46 607
920 155
800 629
514 391
648 39
180 529
126 457
179 636
768 464
